(set-info :smt-lib-version 2.6)
(set-logic QF_NIA)
(set-info :source |
Generated by: Cristina Borralleras, Daniel Larraz, Albert Oliveras, Enric Rodriguez-Carbonell, Albert Rubio
Generated on: 2017-04-27
Generator: VeryMax
Application: Termination proving
Target solver: barcelogic
|)
(set-info :license "https://creativecommons.org/licenses/by/4.0/")
(set-info :category "industrial")
(set-info :status unknown)
(declare-fun Nl4arg11 () Int)
(declare-fun Nl4arg21 () Int)
(declare-fun Nl4arg31 () Int)
(declare-fun Nl4arg41 () Int)
(declare-fun Nl4arg51 () Int)
(declare-fun Nl4arg12 () Int)
(declare-fun Nl4arg22 () Int)
(declare-fun Nl4arg32 () Int)
(declare-fun Nl4arg42 () Int)
(declare-fun Nl4arg52 () Int)
(declare-fun lam0n0 () Int)
(declare-fun lam0n1 () Int)
(declare-fun lam0n2 () Int)
(declare-fun lam0n3 () Int)
(declare-fun lam0n4 () Int)
(declare-fun lam0n5 () Int)
(declare-fun lam0n6 () Int)
(declare-fun lam0n7 () Int)
(declare-fun lam0n8 () Int)
(declare-fun lam0n9 () Int)
(declare-fun lam0n10 () Int)
(declare-fun lam0n11 () Int)
(declare-fun lam0n12 () Int)
(declare-fun lam0n13 () Int)
(declare-fun lam0n14 () Int)
(declare-fun Nl4CT1 () Int)
(declare-fun Nl4CT2 () Int)
(declare-fun lam1n0 () Int)
(declare-fun lam1n1 () Int)
(declare-fun lam1n2 () Int)
(declare-fun lam1n3 () Int)
(declare-fun lam1n4 () Int)
(declare-fun lam1n5 () Int)
(declare-fun lam1n6 () Int)
(declare-fun lam1n7 () Int)
(declare-fun lam1n8 () Int)
(declare-fun lam1n9 () Int)
(declare-fun lam1n10 () Int)
(declare-fun lam1n11 () Int)
(declare-fun lam1n12 () Int)
(declare-fun lam1n13 () Int)
(declare-fun lam1n14 () Int)
(declare-fun lam2n0 () Int)
(declare-fun lam2n1 () Int)
(declare-fun lam2n2 () Int)
(declare-fun lam2n3 () Int)
(declare-fun lam2n4 () Int)
(declare-fun lam2n5 () Int)
(declare-fun lam2n6 () Int)
(declare-fun lam2n7 () Int)
(declare-fun lam2n8 () Int)
(declare-fun lam2n9 () Int)
(declare-fun lam2n10 () Int)
(declare-fun lam2n11 () Int)
(declare-fun lam2n12 () Int)
(declare-fun lam2n13 () Int)
(declare-fun lam2n14 () Int)
(declare-fun lam3n0 () Int)
(declare-fun lam3n1 () Int)
(declare-fun lam3n2 () Int)
(declare-fun lam3n3 () Int)
(declare-fun lam3n4 () Int)
(declare-fun lam3n5 () Int)
(declare-fun lam3n6 () Int)
(declare-fun lam3n7 () Int)
(declare-fun lam3n8 () Int)
(declare-fun lam3n9 () Int)
(declare-fun lam3n10 () Int)
(declare-fun lam3n11 () Int)
(declare-fun lam3n12 () Int)
(declare-fun lam4n0 () Int)
(declare-fun lam4n1 () Int)
(declare-fun lam4n2 () Int)
(declare-fun lam4n3 () Int)
(declare-fun lam4n4 () Int)
(declare-fun lam4n5 () Int)
(declare-fun lam4n6 () Int)
(declare-fun lam4n7 () Int)
(declare-fun lam4n8 () Int)
(declare-fun lam4n9 () Int)
(declare-fun lam4n10 () Int)
(declare-fun lam4n11 () Int)
(declare-fun lam4n12 () Int)
(declare-fun arg1 () Int)
(declare-fun undef21 () Int)
(declare-fun undef41 () Int)
(declare-fun undef42 () Int)
(declare-fun undef44 () Int)
(declare-fun undef66 () Int)
(declare-fun arg2 () Int)
(declare-fun arg3 () Int)
(declare-fun undef24 () Int)
(declare-fun undef25 () Int)
(declare-fun lam5n0 () Int)
(declare-fun lam5n1 () Int)
(declare-fun lam5n2 () Int)
(declare-fun lam5n3 () Int)
(declare-fun lam5n4 () Int)
(declare-fun lam5n5 () Int)
(declare-fun lam5n6 () Int)
(declare-fun lam5n7 () Int)
(declare-fun lam5n8 () Int)
(declare-fun lam5n9 () Int)
(declare-fun lam5n10 () Int)
(declare-fun lam5n11 () Int)
(declare-fun lam5n12 () Int)
(declare-fun lam5n13 () Int)
(declare-fun lam5n14 () Int)
(declare-fun lam6n0 () Int)
(declare-fun lam6n1 () Int)
(declare-fun lam6n2 () Int)
(declare-fun lam6n3 () Int)
(declare-fun lam6n4 () Int)
(declare-fun lam6n5 () Int)
(declare-fun lam6n6 () Int)
(declare-fun lam6n7 () Int)
(declare-fun lam6n8 () Int)
(declare-fun lam6n9 () Int)
(declare-fun lam6n10 () Int)
(declare-fun lam6n11 () Int)
(declare-fun lam6n12 () Int)
(declare-fun lam6n13 () Int)
(declare-fun lam6n14 () Int)
(assert ( and ( <= ( - 1 ) Nl4arg11 ) ( <= Nl4arg11 1 ) ( <= ( - 1 ) Nl4arg21 ) ( <= Nl4arg21 1 ) ( <= ( - 1 ) Nl4arg31 ) ( <= Nl4arg31 1 ) ( <= ( - 1 ) Nl4arg41 ) ( <= Nl4arg41 1 ) ( <= ( - 1 ) Nl4arg51 ) ( <= Nl4arg51 1 ) ( <= ( - 1 ) Nl4arg12 ) ( <= Nl4arg12 1 ) ( <= ( - 1 ) Nl4arg22 ) ( <= Nl4arg22 1 ) ( <= ( - 1 ) Nl4arg32 ) ( <= Nl4arg32 1 ) ( <= ( - 1 ) Nl4arg42 ) ( <= Nl4arg42 1 ) ( <= ( - 1 ) Nl4arg52 ) ( <= Nl4arg52 1 ) ))
(assert ( or ( and ( >= lam0n0 0 ) ( >= lam0n1 0 ) ( >= lam0n2 0 ) ( >= lam0n3 0 ) ( >= lam0n4 0 ) ( >= lam0n5 0 ) ( >= lam0n6 0 ) ( >= lam0n7 0 ) ( >= lam0n8 0 ) ( >= lam0n9 0 ) ( >= lam0n10 0 ) ( >= lam0n11 0 ) ( >= lam0n12 0 ) ( >= lam0n13 0 ) ( >= lam0n14 0 ) ( > ( + ( * 1 lam0n0 ) ( * 1 lam0n1 ) ( * 1 lam0n2 ) ( * 1 lam0n3 ) ( * 1 lam0n4 ) ( * 1 lam0n5 ) ( * 1 lam0n6 ) ( * 2 lam0n12 ) ( * Nl4CT1 lam0n13 ) ( * Nl4CT2 lam0n14 ) ( - 1 ) ) 0 ) ( = ( + ( * ( - 1 ) lam0n0 ) ( * ( - 1 ) lam0n8 ) ( * Nl4arg11 lam0n13 ) ( * Nl4arg12 lam0n14 ) ) 0 ) ( = ( + ( * 1 lam0n1 ) ( * Nl4arg21 lam0n13 ) ( * Nl4arg22 lam0n14 ) ) 0 ) ( = ( + ( * ( - 1 ) lam0n1 ) ( * ( - 1 ) lam0n12 ) ( * Nl4arg31 lam0n13 ) ( * Nl4arg32 lam0n14 ) ) 0 ) ( = ( + ( * Nl4arg41 lam0n13 ) ( * Nl4arg42 lam0n14 ) ) 0 ) ( = ( + ( * Nl4arg51 lam0n13 ) ( * Nl4arg52 lam0n14 ) ) 0 ) ( = ( + ( * ( - 1 ) lam0n2 ) ( * 1 lam0n8 ) ) 0 ) ( = ( + ( * ( - 1 ) lam0n3 ) ( * ( - 1 ) lam0n9 ) ) 0 ) ( = ( + ( * ( - 1 ) lam0n4 ) ( * ( - 1 ) lam0n10 ) ) 0 ) ( = ( + ( * ( - 1 ) lam0n5 ) ( * ( - 1 ) lam0n11 ) ) 0 ) ( = ( + ( * ( - 1 ) lam0n6 ) ( * 1 lam0n9 ) ( * 1 lam0n10 ) ( * 1 lam0n11 ) ) 0 ) ) ( and ( >= lam1n0 0 ) ( >= lam1n1 0 ) ( >= lam1n2 0 ) ( >= lam1n3 0 ) ( >= lam1n4 0 ) ( >= lam1n5 0 ) ( >= lam1n6 0 ) ( >= lam1n7 0 ) ( >= lam1n8 0 ) ( >= lam1n9 0 ) ( >= lam1n10 0 ) ( >= lam1n11 0 ) ( >= lam1n12 0 ) ( >= lam1n13 0 ) ( >= lam1n14 0 ) ( > ( + ( * 1 lam1n0 ) ( * 1 lam1n1 ) ( * 1 lam1n2 ) ( * 1 lam1n3 ) ( * 1 lam1n4 ) ( * 1 lam1n5 ) ( * 1 lam1n6 ) ( * 2 lam1n12 ) ( * Nl4CT1 lam1n13 ) ( * Nl4CT2 lam1n14 ) ( - 1 ( + ( + ( + ( + Nl4CT1 ( * Nl4arg11 0 ) ) ( * Nl4arg21 1 ) ) ( * Nl4arg41 0 ) ) ( * Nl4arg51 0 ) ) ) ) 0 ) ( = ( + ( * ( - 1 ) lam1n0 ) ( * ( - 1 ) lam1n8 ) ( * Nl4arg11 lam1n13 ) ( * Nl4arg12 lam1n14 ) ) 0 ) ( = ( + ( * 1 lam1n1 ) ( * Nl4arg21 lam1n13 ) ( * Nl4arg22 lam1n14 ) ( - ( + 0 ( * Nl4arg21 1 ) ) ) ) 0 ) ( = ( + ( * ( - 1 ) lam1n1 ) ( * ( - 1 ) lam1n12 ) ( * Nl4arg31 lam1n13 ) ( * Nl4arg32 lam1n14 ) ( - ( + 0 Nl4arg31 ) ) ) 0 ) ( = ( + ( * Nl4arg41 lam1n13 ) ( * Nl4arg42 lam1n14 ) ) 0 ) ( = ( + ( * Nl4arg51 lam1n13 ) ( * Nl4arg52 lam1n14 ) ) 0 ) ( = ( + ( * ( - 1 ) lam1n2 ) ( * 1 lam1n8 ) ( - ( + 0 ( * Nl4arg11 1 ) ) ) ) 0 ) ( = ( - ( + 0 ( * Nl4arg41 1 ) ) ) 0 ) ( = ( - ( + 0 ( * Nl4arg51 1 ) ) ) 0 ) ( = ( + ( * ( - 1 ) lam1n3 ) ( * ( - 1 ) lam1n9 ) ) 0 ) ( = ( + ( * ( - 1 ) lam1n4 ) ( * ( - 1 ) lam1n10 ) ) 0 ) ( = ( + ( * ( - 1 ) lam1n5 ) ( * ( - 1 ) lam1n11 ) ) 0 ) ( = ( + ( * ( - 1 ) lam1n6 ) ( * 1 lam1n9 ) ( * 1 lam1n10 ) ( * 1 lam1n11 ) ) 0 ) ) ))
(assert ( or ( and ( >= lam0n0 0 ) ( >= lam0n1 0 ) ( >= lam0n2 0 ) ( >= lam0n3 0 ) ( >= lam0n4 0 ) ( >= lam0n5 0 ) ( >= lam0n6 0 ) ( >= lam0n7 0 ) ( >= lam0n8 0 ) ( >= lam0n9 0 ) ( >= lam0n10 0 ) ( >= lam0n11 0 ) ( >= lam0n12 0 ) ( >= lam0n13 0 ) ( >= lam0n14 0 ) ( > ( + ( * 1 lam0n0 ) ( * 1 lam0n1 ) ( * 1 lam0n2 ) ( * 1 lam0n3 ) ( * 1 lam0n4 ) ( * 1 lam0n5 ) ( * 1 lam0n6 ) ( * 2 lam0n12 ) ( * Nl4CT1 lam0n13 ) ( * Nl4CT2 lam0n14 ) ( - 1 ) ) 0 ) ( = ( + ( * ( - 1 ) lam0n0 ) ( * ( - 1 ) lam0n8 ) ( * Nl4arg11 lam0n13 ) ( * Nl4arg12 lam0n14 ) ) 0 ) ( = ( + ( * 1 lam0n1 ) ( * Nl4arg21 lam0n13 ) ( * Nl4arg22 lam0n14 ) ) 0 ) ( = ( + ( * ( - 1 ) lam0n1 ) ( * ( - 1 ) lam0n12 ) ( * Nl4arg31 lam0n13 ) ( * Nl4arg32 lam0n14 ) ) 0 ) ( = ( + ( * Nl4arg41 lam0n13 ) ( * Nl4arg42 lam0n14 ) ) 0 ) ( = ( + ( * Nl4arg51 lam0n13 ) ( * Nl4arg52 lam0n14 ) ) 0 ) ( = ( + ( * ( - 1 ) lam0n2 ) ( * 1 lam0n8 ) ) 0 ) ( = ( + ( * ( - 1 ) lam0n3 ) ( * ( - 1 ) lam0n9 ) ) 0 ) ( = ( + ( * ( - 1 ) lam0n4 ) ( * ( - 1 ) lam0n10 ) ) 0 ) ( = ( + ( * ( - 1 ) lam0n5 ) ( * ( - 1 ) lam0n11 ) ) 0 ) ( = ( + ( * ( - 1 ) lam0n6 ) ( * 1 lam0n9 ) ( * 1 lam0n10 ) ( * 1 lam0n11 ) ) 0 ) ) ( and ( >= lam2n0 0 ) ( >= lam2n1 0 ) ( >= lam2n2 0 ) ( >= lam2n3 0 ) ( >= lam2n4 0 ) ( >= lam2n5 0 ) ( >= lam2n6 0 ) ( >= lam2n7 0 ) ( >= lam2n8 0 ) ( >= lam2n9 0 ) ( >= lam2n10 0 ) ( >= lam2n11 0 ) ( >= lam2n12 0 ) ( >= lam2n13 0 ) ( >= lam2n14 0 ) ( > ( + ( * 1 lam2n0 ) ( * 1 lam2n1 ) ( * 1 lam2n2 ) ( * 1 lam2n3 ) ( * 1 lam2n4 ) ( * 1 lam2n5 ) ( * 1 lam2n6 ) ( * 2 lam2n12 ) ( * Nl4CT1 lam2n13 ) ( * Nl4CT2 lam2n14 ) ( - 1 ( + ( + ( + ( + Nl4CT2 ( * Nl4arg12 0 ) ) ( * Nl4arg22 1 ) ) ( * Nl4arg42 0 ) ) ( * Nl4arg52 0 ) ) ) ) 0 ) ( = ( + ( * ( - 1 ) lam2n0 ) ( * ( - 1 ) lam2n8 ) ( * Nl4arg11 lam2n13 ) ( * Nl4arg12 lam2n14 ) ) 0 ) ( = ( + ( * 1 lam2n1 ) ( * Nl4arg21 lam2n13 ) ( * Nl4arg22 lam2n14 ) ( - ( + 0 ( * Nl4arg22 1 ) ) ) ) 0 ) ( = ( + ( * ( - 1 ) lam2n1 ) ( * ( - 1 ) lam2n12 ) ( * Nl4arg31 lam2n13 ) ( * Nl4arg32 lam2n14 ) ( - ( + 0 Nl4arg32 ) ) ) 0 ) ( = ( + ( * Nl4arg41 lam2n13 ) ( * Nl4arg42 lam2n14 ) ) 0 ) ( = ( + ( * Nl4arg51 lam2n13 ) ( * Nl4arg52 lam2n14 ) ) 0 ) ( = ( + ( * ( - 1 ) lam2n2 ) ( * 1 lam2n8 ) ( - ( + 0 ( * Nl4arg12 1 ) ) ) ) 0 ) ( = ( - ( + 0 ( * Nl4arg42 1 ) ) ) 0 ) ( = ( - ( + 0 ( * Nl4arg52 1 ) ) ) 0 ) ( = ( + ( * ( - 1 ) lam2n3 ) ( * ( - 1 ) lam2n9 ) ) 0 ) ( = ( + ( * ( - 1 ) lam2n4 ) ( * ( - 1 ) lam2n10 ) ) 0 ) ( = ( + ( * ( - 1 ) lam2n5 ) ( * ( - 1 ) lam2n11 ) ) 0 ) ( = ( + ( * ( - 1 ) lam2n6 ) ( * 1 lam2n9 ) ( * 1 lam2n10 ) ( * 1 lam2n11 ) ) 0 ) ) ))
(assert ( and ( <= ( + 1 ( * ( - 1 ) arg1 ) ) 0 ) ( <= ( + 1 ( * ( - 1 ) undef21 ) ) 0 ) ( <= ( + 1 ( * ( - 1 ) undef41 ) ) 0 ) ( <= ( + 1 ( * ( - 1 ) undef42 ) ) 0 ) ( <= ( + 1 ( * ( - 1 ) undef44 ) ) 0 ) ( <= ( + 1 ( * ( - 1 ) undef66 ) ) 0 ) ( not ( <= 1 0 ) ) ( <= ( + ( * ( - 1 ) arg1 ) undef21 ) 0 ) ( <= ( + ( * ( - 1 ) arg2 ) arg3 ) 0 ) ( <= ( + ( * ( - 1 ) undef41 ) undef66 ) 0 ) ( <= ( + ( * ( - 1 ) undef42 ) undef66 ) 0 ) ( <= ( + ( * ( - 1 ) undef44 ) undef66 ) 0 ) ( <= ( + 2 ( * ( - 1 ) arg3 ) ) 0 ) ( <= ( + ( + ( + ( + ( + Nl4CT1 ( * Nl4arg11 0 ) ) ( * Nl4arg21 0 ) ) ( * Nl4arg41 0 ) ) ( * Nl4arg51 0 ) ) ( * ( + 0 Nl4arg31 ) arg3 ) ( * ( + 0 ( * Nl4arg11 1 ) ) undef21 ) ( * ( + 0 ( * Nl4arg41 1 ) ) undef24 ) ( * ( + 0 ( * Nl4arg51 1 ) ) undef25 ) ) 0 ) ( <= ( + ( + ( + ( + ( + Nl4CT2 ( * Nl4arg12 0 ) ) ( * Nl4arg22 0 ) ) ( * Nl4arg42 0 ) ) ( * Nl4arg52 0 ) ) ( * ( + 0 Nl4arg32 ) arg3 ) ( * ( + 0 ( * Nl4arg12 1 ) ) undef21 ) ( * ( + 0 ( * Nl4arg42 1 ) ) undef24 ) ( * ( + 0 ( * Nl4arg52 1 ) ) undef25 ) ) 0 ) ))
(assert ( or ( or ( and ( >= lam5n0 0 ) ( >= lam5n1 0 ) ( >= lam5n2 0 ) ( >= lam5n3 0 ) ( >= lam5n4 0 ) ( >= lam5n5 0 ) ( >= lam5n6 0 ) ( >= lam5n7 0 ) ( >= lam5n8 0 ) ( >= lam5n9 0 ) ( >= lam5n10 0 ) ( >= lam5n11 0 ) ( >= lam5n12 0 ) ( >= lam5n13 0 ) ( >= lam5n14 0 ) ( > ( + ( * 1 lam5n0 ) ( * 1 lam5n1 ) ( * 1 lam5n2 ) ( * 1 lam5n3 ) ( * 1 lam5n4 ) ( * 2 lam5n12 ) ( * Nl4CT1 lam5n13 ) ( * Nl4CT2 lam5n14 ) ( - 1 ) ) 0 ) ( = ( + ( * ( - 1 ) lam5n0 ) ( * ( - 1 ) lam5n5 ) ( * ( - 1 ) lam5n6 ) ( * ( - 1 ) lam5n7 ) ( * Nl4arg11 lam5n13 ) ( * Nl4arg12 lam5n14 ) ) 0 ) ( = ( + ( * ( - 1 ) lam5n8 ) ( * Nl4arg21 lam5n13 ) ( * Nl4arg22 lam5n14 ) ) 0 ) ( = ( + ( * 1 lam5n8 ) ( * ( - 1 ) lam5n12 ) ( * Nl4arg31 lam5n13 ) ( * Nl4arg32 lam5n14 ) ) 0 ) ( = ( + ( * Nl4arg41 lam5n13 ) ( * Nl4arg42 lam5n14 ) ) 0 ) ( = ( + ( * Nl4arg51 lam5n13 ) ( * Nl4arg52 lam5n14 ) ) 0 ) ( = ( + ( * ( - 1 ) lam5n1 ) ( * 1 lam5n5 ) ( * ( - 1 ) lam5n9 ) ) 0 ) ( = ( + ( * ( - 1 ) lam5n2 ) ( * 1 lam5n6 ) ( * ( - 1 ) lam5n10 ) ) 0 ) ( = ( + ( * ( - 1 ) lam5n3 ) ( * 1 lam5n7 ) ( * ( - 1 ) lam5n11 ) ) 0 ) ( = ( + ( * ( - 1 ) lam5n4 ) ( * 1 lam5n9 ) ( * 1 lam5n10 ) ( * 1 lam5n11 ) ) 0 ) ) ( and ( >= lam6n0 0 ) ( >= lam6n1 0 ) ( >= lam6n2 0 ) ( >= lam6n3 0 ) ( >= lam6n4 0 ) ( >= lam6n5 0 ) ( >= lam6n6 0 ) ( >= lam6n7 0 ) ( >= lam6n8 0 ) ( >= lam6n9 0 ) ( >= lam6n10 0 ) ( >= lam6n11 0 ) ( >= lam6n12 0 ) ( >= lam6n13 0 ) ( >= lam6n14 0 ) ( > ( + ( * 1 lam6n0 ) ( * 1 lam6n1 ) ( * 1 lam6n2 ) ( * 1 lam6n3 ) ( * 1 lam6n4 ) ( * 2 lam6n12 ) ( * Nl4CT1 lam6n13 ) ( * Nl4CT2 lam6n14 ) ( - 1 ) ) 0 ) ( = ( + ( * ( - 1 ) lam6n0 ) ( * ( - 1 ) lam6n5 ) ( * ( - 1 ) lam6n6 ) ( * ( - 1 ) lam6n7 ) ( * Nl4arg11 lam6n13 ) ( * Nl4arg12 lam6n14 ) ) 0 ) ( = ( + ( * ( - 1 ) lam6n8 ) ( * Nl4arg21 lam6n13 ) ( * Nl4arg22 lam6n14 ) ) 0 ) ( = ( + ( * 1 lam6n8 ) ( * ( - 1 ) lam6n12 ) ( * Nl4arg31 lam6n13 ) ( * Nl4arg32 lam6n14 ) ) 0 ) ( = ( + ( * Nl4arg41 lam6n13 ) ( * Nl4arg42 lam6n14 ) ) 0 ) ( = ( + ( * Nl4arg51 lam6n13 ) ( * Nl4arg52 lam6n14 ) ) 0 ) ( = ( + ( * ( - 1 ) lam6n1 ) ( * 1 lam6n5 ) ( * ( - 1 ) lam6n9 ) ) 0 ) ( = ( + ( * ( - 1 ) lam6n2 ) ( * 1 lam6n6 ) ( * ( - 1 ) lam6n10 ) ) 0 ) ( = ( + ( * ( - 1 ) lam6n3 ) ( * 1 lam6n7 ) ( * ( - 1 ) lam6n11 ) ) 0 ) ( = ( + ( * ( - 1 ) lam6n4 ) ( * 1 lam6n9 ) ( * 1 lam6n10 ) ( * 1 lam6n11 ) ) 0 ) ) ) ( and ( and ( <= ( + 1 ( * ( - 1 ) arg1 ) ) 0 ) ( <= ( + 1 ( * ( - 1 ) undef21 ) ) 0 ) ( <= ( + 1 ( * ( - 1 ) undef41 ) ) 0 ) ( <= ( + 1 ( * ( - 1 ) undef42 ) ) 0 ) ( <= ( + 1 ( * ( - 1 ) undef44 ) ) 0 ) ( <= ( + 1 ( * ( - 1 ) undef66 ) ) 0 ) ( not ( <= 1 0 ) ) ( <= ( + ( * ( - 1 ) arg1 ) undef21 ) 0 ) ( <= ( + ( * ( - 1 ) arg2 ) arg3 ) 0 ) ( <= ( + ( * ( - 1 ) undef41 ) undef66 ) 0 ) ( <= ( + ( * ( - 1 ) undef42 ) undef66 ) 0 ) ( <= ( + ( * ( - 1 ) undef44 ) undef66 ) 0 ) ( <= ( + 2 ( * ( - 1 ) arg3 ) ) 0 ) ( <= ( + ( + ( + ( + ( + Nl4CT1 ( * Nl4arg11 0 ) ) ( * Nl4arg21 0 ) ) ( * Nl4arg41 0 ) ) ( * Nl4arg51 0 ) ) ( * ( + 0 Nl4arg31 ) arg3 ) ( * ( + 0 ( * Nl4arg11 1 ) ) undef21 ) ( * ( + 0 ( * Nl4arg41 1 ) ) undef24 ) ( * ( + 0 ( * Nl4arg51 1 ) ) undef25 ) ) 0 ) ( <= ( + ( + ( + ( + ( + Nl4CT2 ( * Nl4arg12 0 ) ) ( * Nl4arg22 0 ) ) ( * Nl4arg42 0 ) ) ( * Nl4arg52 0 ) ) ( * ( + 0 Nl4arg32 ) arg3 ) ( * ( + 0 ( * Nl4arg12 1 ) ) undef21 ) ( * ( + 0 ( * Nl4arg42 1 ) ) undef24 ) ( * ( + 0 ( * Nl4arg52 1 ) ) undef25 ) ) 0 ) ) ( and ( >= lam0n0 0 ) ( >= lam0n1 0 ) ( >= lam0n2 0 ) ( >= lam0n3 0 ) ( >= lam0n4 0 ) ( >= lam0n5 0 ) ( >= lam0n6 0 ) ( >= lam0n7 0 ) ( >= lam0n8 0 ) ( >= lam0n9 0 ) ( >= lam0n10 0 ) ( >= lam0n11 0 ) ( >= lam0n12 0 ) ( >= lam0n13 0 ) ( >= lam0n14 0 ) ( > ( + ( * 1 lam0n0 ) ( * 1 lam0n1 ) ( * 1 lam0n2 ) ( * 1 lam0n3 ) ( * 1 lam0n4 ) ( * 1 lam0n5 ) ( * 1 lam0n6 ) ( * 2 lam0n12 ) ( * Nl4CT1 lam0n13 ) ( * Nl4CT2 lam0n14 ) ( - 1 ) ) 0 ) ( = ( + ( * ( - 1 ) lam0n0 ) ( * ( - 1 ) lam0n8 ) ( * Nl4arg11 lam0n13 ) ( * Nl4arg12 lam0n14 ) ) 0 ) ( = ( + ( * 1 lam0n1 ) ( * Nl4arg21 lam0n13 ) ( * Nl4arg22 lam0n14 ) ) 0 ) ( = ( + ( * ( - 1 ) lam0n1 ) ( * ( - 1 ) lam0n12 ) ( * Nl4arg31 lam0n13 ) ( * Nl4arg32 lam0n14 ) ) 0 ) ( = ( + ( * Nl4arg41 lam0n13 ) ( * Nl4arg42 lam0n14 ) ) 0 ) ( = ( + ( * Nl4arg51 lam0n13 ) ( * Nl4arg52 lam0n14 ) ) 0 ) ( = ( + ( * ( - 1 ) lam0n2 ) ( * 1 lam0n8 ) ) 0 ) ( = ( + ( * ( - 1 ) lam0n3 ) ( * ( - 1 ) lam0n9 ) ) 0 ) ( = ( + ( * ( - 1 ) lam0n4 ) ( * ( - 1 ) lam0n10 ) ) 0 ) ( = ( + ( * ( - 1 ) lam0n5 ) ( * ( - 1 ) lam0n11 ) ) 0 ) ( = ( + ( * ( - 1 ) lam0n6 ) ( * 1 lam0n9 ) ( * 1 lam0n10 ) ( * 1 lam0n11 ) ) 0 ) ) ) ))
(check-sat)
(exit)
